WARNING: for repeatability, setting FPU to use double precision
============================[ Problem Statistics ]=============================
|                                                                             |
|  Number of variables:            50                                         |
|  Number of clauses:             218                                         |
|  Parse time:                   0.00 s                                       |
|                                                                             |
============================[ Search Statistics ]==============================
| Conflicts |          ORIGINAL         |          LEARNT          | Progress |
|           |    Vars  Clauses Literals |    Limit  Clauses Lit/Cl |          |
===============================================================================
===============================================================================
restarts              : 1
conflicts             : 55             (33639 /sec)
decisions             : 64             (0.00 % random) (39144 /sec)
propagations          : 749            (458104 /sec)
conflict literals     : 203            (13.25 % deleted)
Memory used           : 20.00 MB
CPU time              : 0.001635 s

UNSATISFIABLE
